
Gurobi 9.0.1 (linux64) logging started Thu Apr 30 05:57:55 2020

Gurobi Optimizer version 9.0.1 build v9.0.1rc0 (linux64)
Optimize a model with 932 rows, 990 columns and 7056 nonzeros
Model fingerprint: 0x3b7037ae
Variable types: 0 continuous, 990 integer (980 binary)
Coefficient statistics:
  Matrix range     [1e+00, 5e+00]
  Objective range  [1e+00, 1e+02]
  Bounds range     [1e+00, 1e+00]
  RHS range        [1e+00, 1e+00]

User MIP start produced solution with objective 501 (0.00s)
Loaded user MIP start with objective 501

Presolve removed 338 rows and 420 columns
Presolve time: 0.06s
Presolved: 594 rows, 570 columns, 4662 nonzeros
Variable types: 0 continuous, 570 integer (562 binary)

Root relaxation: objective 4.149074e+02, 427 iterations, 0.02 seconds

    Nodes    |    Current Node    |     Objective Bounds      |     Work
 Expl Unexpl |  Obj  Depth IntInf | Incumbent    BestBd   Gap | It/Node Time

     0     0  414.90741    0  199  501.00000  414.90741  17.2%     -    0s
     0     0  441.24846    0  221  501.00000  441.24846  11.9%     -    0s
     0     0  441.90706    0  220  501.00000  441.90706  11.8%     -    0s
     0     0  441.96272    0  220  501.00000  441.96272  11.8%     -    0s
     0     0  441.96317    0  220  501.00000  441.96317  11.8%     -    0s
     0     0  445.28120    0  219  501.00000  445.28120  11.1%     -    0s
     0     0  448.57382    0  229  501.00000  448.57382  10.5%     -    0s
     0     0  449.50607    0  236  501.00000  449.50607  10.3%     -    0s
     0     0  449.73950    0  237  501.00000  449.73950  10.2%     -    0s
     0     0  449.75973    0  239  501.00000  449.75973  10.2%     -    0s
     0     0  449.76138    0  238  501.00000  449.76138  10.2%     -    0s
     0     0  452.98832    0  226  501.00000  452.98832  9.58%     -    0s
     0     0  454.60382    0  219  501.00000  454.60382  9.26%     -    0s
     0     0  454.63972    0  230  501.00000  454.63972  9.25%     -    0s
     0     0  454.65361    0  221  501.00000  454.65361  9.25%     -    0s
     0     0  457.32563    0  220  501.00000  457.32563  8.72%     -    0s
     0     0  458.14127    0  216  501.00000  458.14127  8.55%     -    0s
     0     0  458.51763    0  234  501.00000  458.51763  8.48%     -    0s
     0     0  458.59152    0  240  501.00000  458.59152  8.46%     -    0s
     0     0  458.59387    0  241  501.00000  458.59387  8.46%     -    0s
     0     0  460.23537    0  229  501.00000  460.23537  8.14%     -    0s
     0     0  460.50899    0  230  501.00000  460.50899  8.08%     -    0s
     0     0  460.54708    0  234  501.00000  460.54708  8.07%     -    0s
     0     0  460.55038    0  233  501.00000  460.55038  8.07%     -    0s
     0     0  461.67670    0  237  501.00000  461.67670  7.85%     -    1s
     0     0  461.70037    0  238  501.00000  461.70037  7.84%     -    1s
     0     0  462.62608    0  232  501.00000  462.62608  7.66%     -    1s
     0     0  462.89306    0  236  501.00000  462.89306  7.61%     -    1s
     0     0  463.07062    0  232  501.00000  463.07062  7.57%     -    1s
     0     0  463.10470    0  229  501.00000  463.10470  7.56%     -    1s
     0     0  464.12390    0  221  501.00000  464.12390  7.36%     -    1s
     0     0  464.18120    0  239  501.00000  464.18120  7.35%     -    1s
     0     0  464.20303    0  243  501.00000  464.20303  7.34%     -    1s
     0     0  465.30454    0  230  501.00000  465.30454  7.12%     -    1s
     0     0  465.92963    0  234  501.00000  465.92963  7.00%     -    1s
     0     0  465.93706    0  235  501.00000  465.93706  7.00%     -    1s
     0     0  467.55403    0  228  501.00000  467.55403  6.68%     -    1s
     0     0  467.74675    0  229  501.00000  467.74675  6.64%     -    1s
     0     0  467.84360    0  230  501.00000  467.84360  6.62%     -    1s
     0     0  467.84848    0  230  501.00000  467.84848  6.62%     -    1s
     0     0  468.03663    0  245  501.00000  468.03663  6.58%     -    1s
     0     0  468.08429    0  247  501.00000  468.08429  6.57%     -    1s
     0     0  468.09066    0  247  501.00000  468.09066  6.57%     -    1s
     0     0  468.18655    0  247  501.00000  468.18655  6.55%     -    1s
     0     0  468.18655    0  247  501.00000  468.18655  6.55%     -    1s
     0     0  468.37194    0  199  501.00000  468.37194  6.51%     -    1s
     0     0  468.37194    0  201  501.00000  468.37194  6.51%     -    1s
     0     0  468.37194    0  210  501.00000  468.37194  6.51%     -    1s
     0     0  468.37194    0  216  501.00000  468.37194  6.51%     -    1s
     0     0  468.37194    0  209  501.00000  468.37194  6.51%     -    1s
     0     0  468.37194    0  228  501.00000  468.37194  6.51%     -    1s
     0     0  468.37194    0  229  501.00000  468.37194  6.51%     -    2s
     0     0  468.37194    0  229  501.00000  468.37194  6.51%     -    2s
     0     0  469.00195    0  227  501.00000  469.00195  6.39%     -    2s
     0     0  469.11712    0  223  501.00000  469.11712  6.36%     -    2s
     0     0  469.33832    0  224  501.00000  469.33832  6.32%     -    2s
     0     0  469.51612    0  227  501.00000  469.51612  6.28%     -    2s
     0     0  469.57728    0  231  501.00000  469.57728  6.27%     -    2s
     0     0  469.58255    0  229  501.00000  469.58255  6.27%     -    2s
     0     0  472.93548    0  240  501.00000  472.93548  5.60%     -    2s
     0     0  473.22548    0  233  501.00000  473.22548  5.54%     -    2s
     0     0  473.24996    0  241  501.00000  473.24996  5.54%     -    2s
     0     0  473.30562    0  239  501.00000  473.30562  5.53%     -    2s
     0     0  473.30562    0  239  501.00000  473.30562  5.53%     -    2s
     0     2  473.33209    0  239  501.00000  473.33209  5.52%     -    2s

Cutting planes:
  Gomory: 4
  Clique: 2
  MIR: 20
  GUB cover: 2
  Zero half: 25
  RLT: 107

Explored 104 nodes (12897 simplex iterations) in 3.12 seconds
Thread count was 1 (of 40 available processors)

Solution count 1: 501 

Optimal solution found (tolerance 1.00e-04)
Best objective 5.010000000000e+02, best bound 5.010000000000e+02, gap 0.0000%

User-callback calls 1231, time in user-callback 0.00 sec
